sat
(:binary-propagations  130
 :decisions            98
 :del-clause           50
 :final-checks         3
 :max-generation       1
 :max-memory           23.03
 :memory               20.80
 :mk-bool-var          283
 :mk-clause            82
 :mk-clause-binary     183
 :num-allocs           4690287
 :num-checks           1
 :propagations         156
 :quant-instantiations 50
 :restarts             2
 :rlimit-count         41339
 :time                 0.02)
